p cnf 13 28
4 10 -11 0
4 10 12 0
5 -7 10 0
7 -11 -12 0
-4 -10 13 0
3 -6 7 0
6 9 11 0
-2 -4 8 0
-1 -3 13 0
-3 6 7 0
-1 -4 10 0
1 -6 13 0
2 -3 13 0
-4 6 9 0
4 5 8 0
-1 11 12 0
1 -5 6 0
1 2 -9 0
-1 2 -6 0
-5 11 -13 0
3 4 8 0
3 -7 11 0
-7 10 -11 0
5 -6 -9 0
-3 4 -7 0
1 -7 12 0
-8 10 11 0
4 5 -10 0
